 &control
    calculation       = 'scf'
    restart_mode      = 'from_scratch'
   prefix = 'h-BNCH_band'
   outdir = '/scratch/zibrahim/h-BNCH_band'
    pseudo_dir='/home/zibrahim/common/pseudo/'
    verbosity         = 'high'
    wf_collect        = .true.
 /
 &system 
    ibrav             =  4
    celldm(1)         =  4.65
    nat               =  6
    celldm(3)         =  7
    ntyp              =  4
    nosym             = .false.
    ecutwfc           =  50
    nbnd              =  15
    smearing          = 'fermi-dirac'
    degauss           = 0.000735
 /
 &electrons
    diago_thr_init=1.0e-3,
    electron_maxstep = 60,
    diagonalization='david'
    mixing_mode = 'plain'
    mixing_beta = 0.7
    conv_thr =  1.0d-10
 /
ATOMIC_SPECIES
 H   0.5 H.vbc.UPF
 C   0.5 C.pz-vbc.UPF
 B   10.81    B.pz-vbc.UPF
 N   14.007   N.pz-vbc.UPF
ATOMIC_POSITIONS (angstrom)
H        0.000004948   0.000584713  -1.121034684
N        0.000035439   0.002021873  -0.088334994
B        1.230310844   0.712414375   0.450803734
C        1.230322326   0.713498849   2.072262141
C        0.000021094   0.002852376   2.559041255
H       -0.000020630   0.001298623   3.662505765
K_POINTS {automatic}
 12  12 1 0 0 0
