 &control
    calculation       = 'scf'
    restart_mode      = 'from_scratch'
    prefix = 'h-BNCH_band'
    outdir = '/scratch/zibrahim/h-BNCH_band'
    pseudo_dir='/home/zibrahim/common/pseudo/'
    verbosity         = 'high'
    wf_collect        = .true.
 /
 &system 
    ibrav             =  4      Hexagonal and Trigonal P  celldm(3)=c/a v1 = a(1,0,0),  v2 = a(-1/2,sqrt(3)/2,0),  v3 = a(0,0,c/a)
    celldm(1)         =  4.65   Crystallographic constants - see the "ibrav" variable.
    nat               =  6      Number of atoms in the unit cell
    celldm(3)         =  7      Crystallographic constants - see the "ibrav" variable.
    ntyp              =  4      Number of types of atoms in the unit cell
    nosym             = .false. If (.TRUE.) symmetry is not used. Note that
    ecutwfc           =  50     Kinetic energy cutoff (Ry) for wavefunctions (= 25Ha)
    nbnd              =  15     Number of electronic states (bands) to be calculated.
    smearing          = 'fermi-dirac'
    degauss           = 0.000735 Value of the gaussian spreading (Ry) for brillouin-zone integration in metals.
 /
 &electrons
    diago_thr_init=1.0e-3,      Convergence threshold (ethr) for iterative diagonalization (the check is on eigenvalue convergence).
    electron_maxstep = 60,      Maximum number of iterations in a scf step
    diagonalization='david'     Davidson iterative diagonalization with overlap matrix (default). Fast, may in some rare cases fail.
    mixing_mode = 'plain'       'plain' :    charge density Broyden mixing
    mixing_beta = 0.7           Mixing factor for self-consistency
    conv_thr =  1.0d-10         Convergence threshold for selfconsistency: estimated energy error < conv_thr
 /
ATOMIC_SPECIES
 H   0.5 H.vbc.UPF
 C   0.5 C.pz-vbc.UPF
 B   10.81    B.pz-vbc.UPF
 N   14.007   N.pz-vbc.UPF
ATOMIC_POSITIONS (angstrom)
H        0.000004948   0.000584713  -1.121034684
N        0.000035439   0.002021873  -0.088334994
B        1.230310844   0.712414375   0.450803734
C        1.230322326   0.713498849   2.072262141
C        0.000021094   0.002852376   2.559041255
H       -0.000020630   0.001298623   3.662505765
K_POINTS {automatic}
 12  12 1 0 0 0
